50

100 26 300
100 23 300
98 11 294
97 28 291
97 21 300
94 24 296
92 17 300
92 2 285
91 19 281
85 24 294
84 5 291
84 14 255
83 18 256
82 22 288
82 7 275
80 21 247
78 6 270
78 2 270
78 20 279
78 10 279
75 7 279
74 8 243
73 21 246
72 6 292
71 16 297
70 3 278
70 13 292
68 9 237
66 14 289
65 4 274
65 13 260
54 3 289
50 1 283
50 2 288
50 6 248
49 10 255
49 7 221
49 3 167
47 2 289
44 9 298
44 4 226
42 4 172
42 12 190
41 11 223
41 8 273
41 3 163
40 6 123
36 2 201
36 2 255
30 5 260
